certificates/rado_a10_c82_N17.cnf
c Rad2 upper bound instance: x1 + 10*x2 - x3 = 82, interval [1,17]
p cnf 17 58
1 9 0
-1 -9 0
2 9 10 0
-2 -9 -10 0
1 3 8 0
-1 -3 -8 0
3 9 11 0
-3 -9 -11 0
2 4 8 0
-2 -4 -8 0
4 9 12 0
-4 -9 -12 0
3 5 8 0
-3 -5 -8 0
5 9 13 0
-5 -9 -13 0
4 6 8 0
-4 -6 -8 0
6 9 14 0
-6 -9 -14 0
5 7 8 0
-5 -7 -8 0
7 9 15 0
-7 -9 -15 0
6 8 0
-6 -8 0
8 9 16 0
-8 -9 -16 0
7 8 9 0
-7 -8 -9 0
9 17 0
-9 -17 0
8 10 0
-8 -10 0
8 9 11 0
-8 -9 -11 0
8 10 12 0
-8 -10 -12 0
1 7 13 0
-1 -7 -13 0
8 11 13 0
-8 -11 -13 0
2 7 14 0
-2 -7 -14 0
8 12 14 0
-8 -12 -14 0
3 7 15 0
-3 -7 -15 0
8 13 15 0
-8 -13 -15 0
4 7 16 0
-4 -7 -16 0
8 14 16 0
-8 -14 -16 0
5 7 17 0
-5 -7 -17 0
8 15 17 0
-8 -15 -17 0
