certificates/rado_a10_c82_N17.drat
-7 -17 0
-17 0
9 0
-1 0
-7 0
13 0
5 0
0
